\ This file was automatically generated by Zimpl
\ set f := {1 to 3};
\ set p := {1, 2, 3};
\ set fp := f * p;
\ param L[p] := <1> 140, <2> 120, <3> 100;
\ param C[f] := <1> 750, <2> 900, <3> 450;
\ param E[f] := <1> 1170, <2> 1080, <3> 450;
\ param T[p] := <1> 1.8, <2> 1.35, <3> 1.08;
\ param V[p] := <1> 900, <2> 1200, <3> 750;
\ param CPG := sum <fx> in f : C[fx];
\ param CPP[f] :=      <1> C[1]/CPG,     <2> C[2]/CPG,      <3> C[3]/CPG;
\ var X[fp] >= 0;
\ maximize lucro:     sum<fx, px> in fp :         L[px] * X[fx, px];
\ subto c1:      forall <fx> in f :         sum <px> in p : X[fx, px] <= C[fx];
\ subto c2:     forall <fx> in f :         sum <px> in p : X[fx, px] * T[px] <= E[fx];
\ subto c3:     forall <px> in p :         sum <fx> in f : X[fx, px] <= V[px];
\ subto c4:     forall <fx> in f :         CPP[fx] * (sum <ff, px> in fp : X[ff, px])  == sum <px> in p : X[fx, px];
\Problem name: file
Maximize
 lucro:  +140 X#1#1 +120 X#1#2 +100 X#1#3 +140 X#2#1 +120 X#2#2 +100 X#2#3
  +140 X#3#1 +120 X#3#2 +100 X#3#3
Subject to
 c1_1:
  + X#1#3 + X#1#2 + X#1#1 <= 750
 c1_2:
  + X#2#3 + X#2#2 + X#2#1 <= 900
 c1_3:
  + X#3#3 + X#3#2 + X#3#1 <= 450
 c2_1:
  +1.08 X#1#3 +1.35 X#1#2 +1.8 X#1#1 <= 1170
 c2_2:
  +1.08 X#2#3 +1.35 X#2#2 +1.8 X#2#1 <= 1080
 c2_3:
  +1.08 X#3#3 +1.35 X#3#2 +1.8 X#3#1 <= 450
 c3_1:
  + X#3#1 + X#2#1 + X#1#1 <= 900
 c3_2:
  + X#3#2 + X#2#2 + X#1#2 <= 1200
 c3_3:
  + X#3#3 + X#2#3 + X#1#3 <= 750
 c4_1:
  +0.357142857142857 X#3#3 +0.357142857142857 X#3#2 +0.357142857142857 X#3#1 +0.357142857142857 X#2#3 +0.357142857142857 X#2#2 +0.357142857142857 X#2#1
  -0.642857142857143 X#1#3 -0.642857142857143 X#1#2 -0.642857142857143 X#1#1 = 0
 c4_2:
  +0.428571428571429 X#3#3 +0.428571428571429 X#3#2 +0.428571428571429 X#3#1 -0.571428571428571 X#2#3 -0.571428571428571 X#2#2 -0.571428571428571 X#2#1
  +0.428571428571429 X#1#3 +0.428571428571429 X#1#2 +0.428571428571429 X#1#1 = 0
 c4_3:
  -0.785714285714286 X#3#3 -0.785714285714286 X#3#2 -0.785714285714286 X#3#1 +0.214285714285714 X#2#3 +0.214285714285714 X#2#2 +0.214285714285714 X#2#1
  +0.214285714285714 X#1#3 +0.214285714285714 X#1#2 +0.214285714285714 X#1#1 = 0
Bounds
 0 <= X#1#1 <= +inf
 0 <= X#1#2 <= +inf
 0 <= X#1#3 <= +inf
 0 <= X#2#1 <= +inf
 0 <= X#2#2 <= +inf
 0 <= X#2#3 <= +inf
 0 <= X#3#1 <= +inf
 0 <= X#3#2 <= +inf
 0 <= X#3#3 <= +inf
End
